(declare-const income Real)
(declare-const fee_bl Real)
(declare-const p5_9 Real)
(declare-const p4_7 Real)
(assert (= p4_7 (* 0.047 (ite (> income 42200) 42200 income))))
(assert (= p5_9 (ite (> income 42200) (* 0.059 (- income 42200)) 0)))
(assert (= fee_bl (+ p4_7 p5_9)))